data;
set K:= K1 K2 K3 K4 K5 K6 K7 ;

set F:= F1 F2 ;

set Q:= Q1 Q2 ;

param T:= 45;
param V: 
	K1  K2  K3  K4  K5  K6  K7  :=
Q1	1   1   1   1   0   0   0   
Q2	0   0   0   0   1   1   1   
; # if resorce k is of type q

param TF:= 
K1 6
K2 6
K3 6
K4 6
K5 12
K6 12
K7 12
; # number of continuous time slots resource can fly

param TR:= 
K1 2
K2 2
K3 2
K4 2
K5 4
K6 4
K7 4
; #  number of continuous time slots resource k needs to rest between flights

param P:= 
K1 36
K2 36
K3 36
K4 36
K5 36
K6 36
K7 36
; #  number of continuous time slots a pilot can be present including rest times for resource k 

param N:= 
K1 4
K2 4
K3 4
K4 4
K5 2
K6 2
K7 2
; # max number of flights resource k can fly in the total time period

param A: 
	K1  K2  K3  K4  K5  K6  K7  :=
1	1   1   1   1   1   1   1   
2	1   1   1   1   1   1   1   
3	1   1   1   1   1   1   1   
4	1   1   1   1   1   1   1   
5	1   1   1   1   1   1   1   
6	1   1   1   1   1   1   1   
7	1   1   1   1   1   1   1   
8	1   1   1   1   1   1   1   
9	1   1   1   1   1   1   1   
10	1   1   1   1   1   1   1   
11	1   1   1   1   1   1   1   
12	1   1   1   1   1   1   1   
13	1   1   1   1   1   1   1   
14	1   1   1   1   1   1   1   
15	1   1   1   1   1   1   1   
16	1   1   1   1   1   1   1   
17	1   1   1   1   1   1   1   
18	1   1   1   1   1   1   1   
19	1   1   1   1   1   1   1   
20	1   1   1   1   1   1   1   
21	1   1   1   1   1   1   1   
22	1   1   1   1   1   1   1   
23	1   1   1   1   1   1   1   
24	1   1   1   1   1   1   1   
25	1   1   1   1   1   1   1   
26	1   1   1   1   1   1   1   
27	1   1   1   1   1   1   1   
28	1   1   1   1   1   1   1   
29	1   1   1   1   1   1   1   
30	1   1   1   1   1   1   1   
31	1   1   1   1   1   1   1   
32	1   1   1   1   1   1   1   
33	1   1   1   1   1   1   1   
34	1   1   1   1   1   1   1   
35	1   1   1   1   1   1   1   
36	1   1   1   1   1   1   1   
37	1   1   1   1   1   1   1   
38	1   1   1   1   1   1   1   
39	1   1   1   1   1   1   1   
40	1   1   1   1   1   1   1   
41	1   1   1   1   1   1   1   
42	1   1   1   1   1   1   1   
43	1   1   1   1   1   1   1   
44	1   1   1   1   1   1   1   
45	1   1   1   1   1   1   1   
; # availability of resorce k in time slot t

param B: 
	F1  F2  :=
Q1	0   0   
Q2	0   0   
; # if front f requires resources of type q

param U: 
	F1  F2  :=
K1	0   0   
K2	0   0   
K3	0   0   
K4	0   0   
K5	0   0   
K6	2   2   
K7	0   0   
; # transit time of resource

param C:= 
K1 900
K2 900
K3 1500
K4 4500
K5 5500
K6 5500
K7 5500
; #  water capacity of resource k

param S:= 
F1 10
F2 10
; # max number of resources that can fly at front f in the same time slot

param D:= 

[*,*,F1 ]:  K1    K2    K3    K4    K5    K6    K7    :=
1           1.47  1.47  1.47  1.17  0.88  0.88  0.88  
2           1.47  1.47  1.47  1.17  0.88  0.88  0.88  
3           1.47  1.47  1.47  1.17  0.88  0.88  0.88  
4           1.47  1.47  1.47  1.17  0.88  0.88  0.88  
5           1.47  1.47  1.47  1.17  0.88  0.88  0.88  
6           1.47  1.47  1.47  1.17  0.88  0.88  0.88  
7           1.47  1.47  1.47  1.17  0.88  0.88  0.88  
8           1.47  1.47  1.47  1.17  0.88  0.88  0.88  
9           1.47  1.47  1.47  1.17  0.88  0.88  0.88  
10          1.47  1.47  1.47  1.17  0.88  0.88  0.88  
11          1.47  1.47  1.47  1.17  0.88  0.88  0.88  
12          1.47  1.47  1.47  1.17  0.88  0.88  0.88  
13          1.47  1.47  1.47  1.17  0.88  0.88  0.88  
14          1.47  1.47  1.47  1.17  0.88  0.88  0.88  
15          1.47  1.47  1.47  1.17  0.88  0.88  0.88  
16          1.47  1.47  1.47  1.17  0.88  0.88  0.88  
17          1.47  1.47  1.47  1.17  0.88  0.88  0.88  
18          1.47  1.47  1.47  1.17  0.88  0.88  0.88  
19          1.47  1.47  1.47  1.17  0.88  0.88  0.88  
20          1.47  1.47  1.47  1.17  0.88  0.88  0.88  
21          1.47  1.47  1.47  1.17  0.88  0.88  0.88  
22          1.47  1.47  1.47  1.17  0.88  0.88  0.88  
23          1.47  1.47  1.47  1.17  0.88  0.88  0.88  
24          1.47  1.47  1.47  1.17  0.88  0.88  0.88  
25          1.40  1.40  1.40  1.11  0.84  0.84  0.84  
26          1.40  1.40  1.40  1.11  0.84  0.84  0.84  
27          1.40  1.40  1.40  1.11  0.84  0.84  0.84  
28          1.40  1.40  1.40  1.11  0.84  0.84  0.84  
29          1.40  1.40  1.40  1.11  0.84  0.84  0.84  
30          1.40  1.40  1.40  1.11  0.84  0.84  0.84  
31          1.40  1.40  1.40  1.11  0.84  0.84  0.84  
32          1.40  1.40  1.40  1.11  0.84  0.84  0.84  
33          1.40  1.40  1.40  1.11  0.84  0.84  0.84  
34          1.47  1.47  1.47  1.17  0.88  0.88  0.88  
35          1.47  1.47  1.47  1.17  0.88  0.88  0.88  
36          1.47  1.47  1.47  1.17  0.88  0.88  0.88  
37          1.47  1.47  1.47  1.17  0.88  0.88  0.88  
38          1.47  1.47  1.47  1.17  0.88  0.88  0.88  
39          1.47  1.47  1.47  1.17  0.88  0.88  0.88  
40          1.47  1.47  1.47  1.17  0.88  0.88  0.88  
41          1.47  1.47  1.47  1.17  0.88  0.88  0.88  
42          1.47  1.47  1.47  1.17  0.88  0.88  0.88  
43          1.47  1.47  1.47  1.17  0.88  0.88  0.88  
44          1.47  1.47  1.47  1.17  0.88  0.88  0.88  
45          1.47  1.47  1.47  1.17  0.88  0.88  0.88  

[*,*,F2 ]:  K1    K2    K3    K4    K5    K6    K7    :=
1           1.55  1.55  1.55  1.24  0.93  0.93  0.93  
2           1.55  1.55  1.55  1.24  0.93  0.93  0.93  
3           1.55  1.55  1.55  1.24  0.93  0.93  0.93  
4           1.55  1.55  1.55  1.24  0.93  0.93  0.93  
5           1.55  1.55  1.55  1.24  0.93  0.93  0.93  
6           1.55  1.55  1.55  1.24  0.93  0.93  0.93  
7           1.55  1.55  1.55  1.24  0.93  0.93  0.93  
8           1.55  1.55  1.55  1.24  0.93  0.93  0.93  
9           1.55  1.55  1.55  1.24  0.93  0.93  0.93  
10          1.55  1.55  1.55  1.24  0.93  0.93  0.93  
11          1.55  1.55  1.55  1.24  0.93  0.93  0.93  
12          1.55  1.55  1.55  1.24  0.93  0.93  0.93  
13          1.55  1.55  1.55  1.24  0.93  0.93  0.93  
14          1.55  1.55  1.55  1.24  0.93  0.93  0.93  
15          1.55  1.55  1.55  1.24  0.93  0.93  0.93  
16          1.55  1.55  1.55  1.24  0.93  0.93  0.93  
17          1.55  1.55  1.55  1.24  0.93  0.93  0.93  
18          1.55  1.55  1.55  1.24  0.93  0.93  0.93  
19          1.55  1.55  1.55  1.24  0.93  0.93  0.93  
20          1.55  1.55  1.55  1.24  0.93  0.93  0.93  
21          1.55  1.55  1.55  1.24  0.93  0.93  0.93  
22          1.55  1.55  1.55  1.24  0.93  0.93  0.93  
23          1.55  1.55  1.55  1.24  0.93  0.93  0.93  
24          1.55  1.55  1.55  1.24  0.93  0.93  0.93  
25          1.48  1.48  1.48  1.18  0.88  0.88  0.88  
26          1.48  1.48  1.48  1.18  0.88  0.88  0.88  
27          1.48  1.48  1.48  1.18  0.88  0.88  0.88  
28          1.48  1.48  1.48  1.18  0.88  0.88  0.88  
29          1.48  1.48  1.48  1.18  0.88  0.88  0.88  
30          1.48  1.48  1.48  1.18  0.88  0.88  0.88  
31          1.48  1.48  1.48  1.18  0.88  0.88  0.88  
32          1.48  1.48  1.48  1.18  0.88  0.88  0.88  
33          1.48  1.48  1.48  1.18  0.88  0.88  0.88  
34          1.55  1.55  1.55  1.24  0.93  0.93  0.93  
35          1.55  1.55  1.55  1.24  0.93  0.93  0.93  
36          1.55  1.55  1.55  1.24  0.93  0.93  0.93  
37          1.55  1.55  1.55  1.24  0.93  0.93  0.93  
38          1.55  1.55  1.55  1.24  0.93  0.93  0.93  
39          1.55  1.55  1.55  1.24  0.93  0.93  0.93  
40          1.55  1.55  1.55  1.24  0.93  0.93  0.93  
41          1.55  1.55  1.55  1.24  0.93  0.93  0.93  
42          1.55  1.55  1.55  1.24  0.93  0.93  0.93  
43          1.55  1.55  1.55  1.24  0.93  0.93  0.93  
44          1.55  1.55  1.55  1.24  0.93  0.93  0.93  
45          1.55  1.55  1.55  1.24  0.93  0.93  0.93  
; # downloads resource k can do at front f in time t if intermediate time slot

param E:= 

[*,*,F1 ]:  K1    K2    K3    K4    K5    K6    K7    :=
1           0.24  0.15  0.06  0.33  0.42  0.26  0.34  
2           0.24  0.15  0.06  0.33  0.42  0.26  0.34  
3           0.24  0.15  0.06  0.33  0.42  0.26  0.34  
4           0.24  0.15  0.06  0.33  0.42  0.26  0.34  
5           0.24  0.15  0.06  0.33  0.42  0.26  0.34  
6           0.24  0.15  0.06  0.33  0.42  0.26  0.34  
7           0.24  0.15  0.06  0.33  0.42  0.26  0.34  
8           0.24  0.15  0.06  0.33  0.42  0.26  0.34  
9           0.24  0.15  0.06  0.33  0.42  0.26  0.34  
10          0.24  0.15  0.06  0.33  0.42  0.26  0.34  
11          0.24  0.15  0.06  0.33  0.42  0.26  0.34  
12          0.24  0.15  0.06  0.33  0.42  0.26  0.34  
13          0.24  0.15  0.06  0.33  0.42  0.26  0.34  
14          0.24  0.15  0.06  0.33  0.42  0.26  0.34  
15          0.24  0.15  0.06  0.33  0.42  0.26  0.34  
16          0.24  0.15  0.06  0.33  0.42  0.26  0.34  
17          0.24  0.15  0.06  0.33  0.42  0.26  0.34  
18          0.24  0.15  0.06  0.33  0.42  0.26  0.34  
19          0.24  0.15  0.06  0.33  0.42  0.26  0.34  
20          0.24  0.15  0.06  0.33  0.42  0.26  0.34  
21          0.24  0.15  0.06  0.33  0.42  0.26  0.34  
22          0.24  0.15  0.06  0.33  0.42  0.26  0.34  
23          0.24  0.15  0.06  0.33  0.42  0.26  0.34  
24          0.24  0.15  0.06  0.33  0.42  0.26  0.34  
25          0.22  0.14  0.06  0.31  0.40  0.24  0.33  
26          0.22  0.14  0.06  0.31  0.40  0.24  0.33  
27          0.22  0.14  0.06  0.31  0.40  0.24  0.33  
28          0.22  0.14  0.06  0.31  0.40  0.24  0.33  
29          0.22  0.14  0.06  0.31  0.40  0.24  0.33  
30          0.22  0.14  0.06  0.31  0.40  0.24  0.33  
31          0.22  0.14  0.06  0.31  0.40  0.24  0.33  
32          0.22  0.14  0.06  0.31  0.40  0.24  0.33  
33          0.22  0.14  0.06  0.31  0.40  0.24  0.33  
34          0.24  0.15  0.06  0.33  0.42  0.26  0.34  
35          0.24  0.15  0.06  0.33  0.42  0.26  0.34  
36          0.24  0.15  0.06  0.33  0.42  0.26  0.34  
37          0.24  0.15  0.06  0.33  0.42  0.26  0.34  
38          0.24  0.15  0.06  0.33  0.42  0.26  0.34  
39          0.24  0.15  0.06  0.33  0.42  0.26  0.34  
40          0.24  0.15  0.06  0.33  0.42  0.26  0.34  
41          0.24  0.15  0.06  0.33  0.42  0.26  0.34  
42          0.24  0.15  0.06  0.33  0.42  0.26  0.34  
43          0.24  0.15  0.06  0.33  0.42  0.26  0.34  
44          0.24  0.15  0.06  0.33  0.42  0.26  0.34  
45          0.24  0.15  0.06  0.33  0.42  0.26  0.34  

[*,*,F2 ]:  K1    K2    K3    K4    K5    K6    K7    :=
1           0.25  0.22  0.17  0.30  0.47  0.29  0.36  
2           0.25  0.22  0.17  0.30  0.47  0.29  0.36  
3           0.25  0.22  0.17  0.30  0.47  0.29  0.36  
4           0.25  0.22  0.17  0.30  0.47  0.29  0.36  
5           0.25  0.22  0.17  0.30  0.47  0.29  0.36  
6           0.25  0.22  0.17  0.30  0.47  0.29  0.36  
7           0.25  0.22  0.17  0.30  0.47  0.29  0.36  
8           0.25  0.22  0.17  0.30  0.47  0.29  0.36  
9           0.25  0.22  0.17  0.30  0.47  0.29  0.36  
10          0.25  0.22  0.17  0.30  0.47  0.29  0.36  
11          0.25  0.22  0.17  0.30  0.47  0.29  0.36  
12          0.25  0.22  0.17  0.30  0.47  0.29  0.36  
13          0.25  0.22  0.17  0.30  0.47  0.29  0.36  
14          0.25  0.22  0.17  0.30  0.47  0.29  0.36  
15          0.25  0.22  0.17  0.30  0.47  0.29  0.36  
16          0.25  0.22  0.17  0.30  0.47  0.29  0.36  
17          0.25  0.22  0.17  0.30  0.47  0.29  0.36  
18          0.25  0.22  0.17  0.30  0.47  0.29  0.36  
19          0.25  0.22  0.17  0.30  0.47  0.29  0.36  
20          0.25  0.22  0.17  0.30  0.47  0.29  0.36  
21          0.25  0.22  0.17  0.30  0.47  0.29  0.36  
22          0.25  0.22  0.17  0.30  0.47  0.29  0.36  
23          0.25  0.22  0.17  0.30  0.47  0.29  0.36  
24          0.25  0.22  0.17  0.30  0.47  0.29  0.36  
25          0.24  0.21  0.16  0.28  0.44  0.27  0.34  
26          0.24  0.21  0.16  0.28  0.44  0.27  0.34  
27          0.24  0.21  0.16  0.28  0.44  0.27  0.34  
28          0.24  0.21  0.16  0.28  0.44  0.27  0.34  
29          0.24  0.21  0.16  0.28  0.44  0.27  0.34  
30          0.24  0.21  0.16  0.28  0.44  0.27  0.34  
31          0.24  0.21  0.16  0.28  0.44  0.27  0.34  
32          0.24  0.21  0.16  0.28  0.44  0.27  0.34  
33          0.24  0.21  0.16  0.28  0.44  0.27  0.34  
34          0.25  0.22  0.17  0.30  0.47  0.29  0.36  
35          0.25  0.22  0.17  0.30  0.47  0.29  0.36  
36          0.25  0.22  0.17  0.30  0.47  0.29  0.36  
37          0.25  0.22  0.17  0.30  0.47  0.29  0.36  
38          0.25  0.22  0.17  0.30  0.47  0.29  0.36  
39          0.25  0.22  0.17  0.30  0.47  0.29  0.36  
40          0.25  0.22  0.17  0.30  0.47  0.29  0.36  
41          0.25  0.22  0.17  0.30  0.47  0.29  0.36  
42          0.25  0.22  0.17  0.30  0.47  0.29  0.36  
43          0.25  0.22  0.17  0.30  0.47  0.29  0.36  
44          0.25  0.22  0.17  0.30  0.47  0.29  0.36  
45          0.25  0.22  0.17  0.30  0.47  0.29  0.36  
; # downloads resource k can do at front f in time t if starting or ending flight

param W: 
	F1        F2        :=
1	1140.31   614.02    
2	4561.26   2456.06   
3	4561.26   2456.06   
4	4561.26   2456.06   
5	4561.26   2456.06   
6	4561.26   2456.06   
7	4561.26   2456.06   
8	4561.26   2456.06   
9	4561.26   2456.06   
10	4561.26   2456.06   
11	4561.26   2456.06   
12	4561.26   2456.06   
13	4561.26   2456.06   
14	4561.26   2456.06   
15	4561.26   2456.06   
16	4561.26   2456.06   
17	4561.26   2456.06   
18	4561.26   2456.06   
19	2027.23   1091.58   
20	2027.23   1091.58   
21	2027.23   1091.58   
22	2027.23   1091.58   
23	2027.23   1091.58   
24	2027.23   1091.58   
25	2027.23   1091.58   
26	2027.23   1091.58   
27	2027.23   1091.58   
28	2027.23   1091.58   
29	2027.23   1091.58   
30	2027.23   1091.58   
31	2027.23   1091.58   
32	2027.23   1091.58   
33	2027.23   1091.58   
34	2027.23   1091.58   
35	2027.23   1091.58   
36	2027.23   1091.58   
37	2027.23   1091.58   
38	2027.23   1091.58   
39	2027.23   1091.58   
40	2027.23   1091.58   
41	2027.23   1091.58   
42	2027.23   1091.58   
43	2027.23   1091.58   
44	2027.23   1091.58   
45	506.81    272.90    
; # water needed at front f in time slot t

param M := 100000000; 

param a1:= 10000000;

param a2:= 100;

param a3:= 0.0001;
